c nIsolatedPIs 32
c maxPI 96
p cnf 312 649
c gate 97 -24 -72 0
-24 -97 0
-72 -97 0
24 72 97 0
c gate 98 15 63 0
15 -98 0
63 -98 0
-15 -63 98 0
c gate 99 16 64 0
16 -99 0
64 -99 0
-16 -64 99 0
c gate 100 -98 -99 0
-98 -100 0
-99 -100 0
98 99 100 0
c gate 101 -16 -64 0
-16 -101 0
-64 -101 0
16 64 101 0
c gate 102 -100 -101 0
-100 -102 0
-101 -102 0
100 101 102 0
c gate 103 13 61 0
13 -103 0
61 -103 0
-13 -61 103 0
c gate 104 14 62 0
14 -104 0
62 -104 0
-14 -62 104 0
c gate 105 -103 -104 0
-103 -105 0
-104 -105 0
103 104 105 0
c gate 106 -14 -62 0
-14 -106 0
-62 -106 0
14 62 106 0
c gate 107 -105 -106 0
-105 -107 0
-106 -107 0
105 106 107 0
c gate 108 -12 -60 0
-12 -108 0
-60 -108 0
12 60 108 0
c gate 109 11 59 0
11 -109 0
59 -109 0
-11 -59 109 0
c gate 110 12 60 0
12 -110 0
60 -110 0
-12 -60 110 0
c gate 111 -109 -110 0
-109 -111 0
-110 -111 0
109 110 111 0
c gate 112 -108 -111 0
-108 -112 0
-111 -112 0
108 111 112 0
c gate 113 10 58 0
10 -113 0
58 -113 0
-10 -58 113 0
c gate 114 9 57 0
9 -114 0
57 -114 0
-9 -57 114 0
c gate 115 -113 -114 0
-113 -115 0
-114 -115 0
113 114 115 0
c gate 116 2 50 0
2 -116 0
50 -116 0
-2 -50 116 0
c gate 117 1 49 0
1 -117 0
49 -117 0
-1 -49 117 0
c gate 118 -116 -117 0
-116 -118 0
-117 -118 0
116 117 118 0
c gate 119 -3 -51 0
-3 -119 0
-51 -119 0
3 51 119 0
c gate 120 -2 -50 0
-2 -120 0
-50 -120 0
2 50 120 0
c gate 121 -119 -120 0
-119 -121 0
-120 -121 0
119 120 121 0
c gate 122 -118 121 0
-118 -122 0
121 -122 0
118 -121 122 0
c gate 123 4 52 0
4 -123 0
52 -123 0
-4 -52 123 0
c gate 124 3 51 0
3 -124 0
51 -124 0
-3 -51 124 0
c gate 125 -123 -124 0
-123 -125 0
-124 -125 0
123 124 125 0
c gate 126 -122 125 0
-122 -126 0
125 -126 0
122 -125 126 0
c gate 127 -5 -53 0
-5 -127 0
-53 -127 0
5 53 127 0
c gate 128 -4 -52 0
-4 -128 0
-52 -128 0
4 52 128 0
c gate 129 -127 -128 0
-127 -129 0
-128 -129 0
127 128 129 0
c gate 130 -126 129 0
-126 -130 0
129 -130 0
126 -129 130 0
c gate 131 6 54 0
6 -131 0
54 -131 0
-6 -54 131 0
c gate 132 5 53 0
5 -132 0
53 -132 0
-5 -53 132 0
c gate 133 -131 -132 0
-131 -133 0
-132 -133 0
131 132 133 0
c gate 134 -130 133 0
-130 -134 0
133 -134 0
130 -133 134 0
c gate 135 -7 -55 0
-7 -135 0
-55 -135 0
7 55 135 0
c gate 136 -6 -54 0
-6 -136 0
-54 -136 0
6 54 136 0
c gate 137 -135 -136 0
-135 -137 0
-136 -137 0
135 136 137 0
c gate 138 -134 137 0
-134 -138 0
137 -138 0
134 -137 138 0
c gate 139 8 56 0
8 -139 0
56 -139 0
-8 -56 139 0
c gate 140 7 55 0
7 -140 0
55 -140 0
-7 -55 140 0
c gate 141 -139 -140 0
-139 -141 0
-140 -141 0
139 140 141 0
c gate 142 -138 141 0
-138 -142 0
141 -142 0
138 -141 142 0
c gate 143 -8 -56 0
-8 -143 0
-56 -143 0
8 56 143 0
c gate 144 -9 -57 0
-9 -144 0
-57 -144 0
9 57 144 0
c gate 145 -143 -144 0
-143 -145 0
-144 -145 0
143 144 145 0
c gate 146 -142 145 0
-142 -146 0
145 -146 0
142 -145 146 0
c gate 147 115 -146 0
115 -147 0
-146 -147 0
-115 146 147 0
c gate 148 -10 -58 0
-10 -148 0
-58 -148 0
10 58 148 0
c gate 149 -11 -59 0
-11 -149 0
-59 -149 0
11 59 149 0
c gate 150 -108 -149 0
-108 -150 0
-149 -150 0
108 149 150 0
c gate 151 -148 150 0
-148 -151 0
150 -151 0
148 -150 151 0
c gate 152 111 151 0
111 -152 0
151 -152 0
-111 -151 152 0
c gate 153 -147 152 0
-147 -153 0
152 -153 0
147 -152 153 0
c gate 154 -112 -153 0
-112 -154 0
-153 -154 0
112 153 154 0
c gate 155 -13 -61 0
-13 -155 0
-61 -155 0
13 61 155 0
c gate 156 -106 -155 0
-106 -156 0
-155 -156 0
106 155 156 0
c gate 157 105 156 0
105 -157 0
156 -157 0
-105 -156 157 0
c gate 158 -154 157 0
-154 -158 0
157 -158 0
154 -157 158 0
c gate 159 -107 -158 0
-107 -159 0
-158 -159 0
107 158 159 0
c gate 160 -15 -63 0
-15 -160 0
-63 -160 0
15 63 160 0
c gate 161 -101 -160 0
-101 -161 0
-160 -161 0
101 160 161 0
c gate 162 100 161 0
100 -162 0
161 -162 0
-100 -161 162 0
c gate 163 -159 162 0
-159 -163 0
162 -163 0
159 -162 163 0
c gate 164 -102 -163 0
-102 -164 0
-163 -164 0
102 163 164 0
c gate 165 17 65 0
17 -165 0
65 -165 0
-17 -65 165 0
c gate 166 18 66 0
18 -166 0
66 -166 0
-18 -66 166 0
c gate 167 -165 -166 0
-165 -167 0
-166 -167 0
165 166 167 0
c gate 168 -19 -67 0
-19 -168 0
-67 -168 0
19 67 168 0
c gate 169 -18 -66 0
-18 -169 0
-66 -169 0
18 66 169 0
c gate 170 -168 -169 0
-168 -170 0
-169 -170 0
168 169 170 0
c gate 171 -167 170 0
-167 -171 0
170 -171 0
167 -170 171 0
c gate 172 20 68 0
20 -172 0
68 -172 0
-20 -68 172 0
c gate 173 19 67 0
19 -173 0
67 -173 0
-19 -67 173 0
c gate 174 -172 -173 0
-172 -174 0
-173 -174 0
172 173 174 0
c gate 175 -171 174 0
-171 -175 0
174 -175 0
171 -174 175 0
c gate 176 -20 -68 0
-20 -176 0
-68 -176 0
20 68 176 0
c gate 177 -21 -69 0
-21 -177 0
-69 -177 0
21 69 177 0
c gate 178 -176 -177 0
-176 -178 0
-177 -178 0
176 177 178 0
c gate 179 -175 178 0
-175 -179 0
178 -179 0
175 -178 179 0
c gate 180 22 70 0
22 -180 0
70 -180 0
-22 -70 180 0
c gate 181 21 69 0
21 -181 0
69 -181 0
-21 -69 181 0
c gate 182 -180 -181 0
-180 -182 0
-181 -182 0
180 181 182 0
c gate 183 -179 182 0
-179 -183 0
182 -183 0
179 -182 183 0
c gate 184 -17 -65 0
-17 -184 0
-65 -184 0
17 65 184 0
c gate 185 170 -184 0
170 -185 0
-184 -185 0
-170 184 185 0
c gate 186 -22 -70 0
-22 -186 0
-70 -186 0
22 70 186 0
c gate 187 -23 -71 0
-23 -187 0
-71 -187 0
23 71 187 0
c gate 188 -186 -187 0
-186 -188 0
-187 -188 0
186 187 188 0
c gate 189 23 71 0
23 -189 0
71 -189 0
-23 -71 189 0
c gate 190 24 72 0
24 -190 0
72 -190 0
-24 -72 190 0
c gate 191 -189 -190 0
-189 -191 0
-190 -191 0
189 190 191 0
c gate 192 178 191 0
178 -192 0
191 -192 0
-178 -191 192 0
c gate 193 188 192 0
188 -193 0
192 -193 0
-188 -192 193 0
c gate 194 185 193 0
185 -194 0
193 -194 0
-185 -193 194 0
c gate 195 175 194 0
175 -195 0
194 -195 0
-175 -194 195 0
c gate 196 183 195 0
183 -196 0
195 -196 0
-183 -195 196 0
c gate 197 -164 196 0
-164 -197 0
196 -197 0
164 -196 197 0
c gate 198 -183 188 0
-183 -198 0
188 -198 0
183 -188 198 0
c gate 199 191 -198 0
191 -199 0
-198 -199 0
-191 198 199 0
c gate 200 31 79 0
31 -200 0
79 -200 0
-31 -79 200 0
c gate 201 32 80 0
32 -201 0
80 -201 0
-32 -80 201 0
c gate 202 -200 -201 0
-200 -202 0
-201 -202 0
200 201 202 0
c gate 203 -31 -79 0
-31 -203 0
-79 -203 0
31 79 203 0
c gate 204 -32 -80 0
-32 -204 0
-80 -204 0
32 80 204 0
c gate 205 -203 -204 0
-203 -205 0
-204 -205 0
203 204 205 0
c gate 206 202 205 0
202 -206 0
205 -206 0
-202 -205 206 0
c gate 207 29 77 0
29 -207 0
77 -207 0
-29 -77 207 0
c gate 208 30 78 0
30 -208 0
78 -208 0
-30 -78 208 0
c gate 209 -207 -208 0
-207 -209 0
-208 -209 0
207 208 209 0
c gate 210 -29 -77 0
-29 -210 0
-77 -210 0
29 77 210 0
c gate 211 -28 -76 0
-28 -211 0
-76 -211 0
28 76 211 0
c gate 212 -30 -78 0
-30 -212 0
-78 -212 0
30 78 212 0
c gate 213 -211 -212 0
-211 -213 0
-212 -213 0
211 212 213 0
c gate 214 -210 213 0
-210 -214 0
213 -214 0
210 -213 214 0
c gate 215 209 214 0
209 -215 0
214 -215 0
-209 -214 215 0
c gate 216 206 215 0
206 -216 0
215 -216 0
-206 -215 216 0
c gate 217 -27 -75 0
-27 -217 0
-75 -217 0
27 75 217 0
c gate 218 -26 -74 0
-26 -218 0
-74 -218 0
26 74 218 0
c gate 219 -217 -218 0
-217 -219 0
-218 -219 0
217 218 219 0
c gate 220 25 73 0
25 -220 0
73 -220 0
-25 -73 220 0
c gate 221 26 74 0
26 -221 0
74 -221 0
-26 -74 221 0
c gate 222 -220 -221 0
-220 -222 0
-221 -222 0
220 221 222 0
c gate 223 219 -222 0
219 -223 0
-222 -223 0
-219 222 223 0
c gate 224 27 75 0
27 -224 0
75 -224 0
-27 -75 224 0
c gate 225 28 76 0
28 -225 0
76 -225 0
-28 -76 225 0
c gate 226 -224 -225 0
-224 -226 0
-225 -226 0
224 225 226 0
c gate 227 -223 226 0
-223 -227 0
226 -227 0
223 -226 227 0
c gate 228 -25 -73 0
-25 -228 0
-73 -228 0
25 73 228 0
c gate 229 219 -228 0
219 -229 0
-228 -229 0
-219 228 229 0
c gate 230 227 229 0
227 -230 0
229 -230 0
-227 -229 230 0
c gate 231 216 230 0
216 -231 0
230 -231 0
-216 -230 231 0
c gate 232 -199 231 0
-199 -232 0
231 -232 0
199 -231 232 0
c gate 233 -197 -232 0
-197 -233 0
-232 -233 0
197 232 233 0
c gate 234 -97 -233 0
-97 -234 0
-233 -234 0
97 233 234 0
c gate 235 216 -227 0
216 -235 0
-227 -235 0
-216 227 235 0
c gate 236 -202 -204 0
-202 -236 0
-204 -236 0
202 204 236 0
c gate 237 -209 -212 0
-209 -237 0
-212 -237 0
209 212 237 0
c gate 238 206 237 0
206 -238 0
237 -238 0
-206 -237 238 0
c gate 239 -236 -238 0
-236 -239 0
-238 -239 0
236 238 239 0
c gate 240 -235 239 0
-235 -240 0
239 -240 0
235 -239 240 0
c gate 241 46 94 0
46 -241 0
94 -241 0
-46 -94 241 0
c gate 242 38 86 0
38 -242 0
86 -242 0
-38 -86 242 0
c gate 243 -241 -242 0
-241 -243 0
-242 -243 0
241 242 243 0
c gate 244 -41 -89 0
-41 -244 0
-89 -244 0
41 89 244 0
c gate 245 -35 -83 0
-35 -245 0
-83 -245 0
35 83 245 0
c gate 246 -244 -245 0
-244 -246 0
-245 -246 0
244 245 246 0
c gate 247 243 246 0
243 -247 0
246 -247 0
-243 -246 247 0
c gate 248 -39 -87 0
-39 -248 0
-87 -248 0
39 87 248 0
c gate 249 -40 -88 0
-40 -249 0
-88 -249 0
40 88 249 0
c gate 250 -248 -249 0
-248 -250 0
-249 -250 0
248 249 250 0
c gate 251 -45 -93 0
-45 -251 0
-93 -251 0
45 93 251 0
c gate 252 43 91 0
43 -252 0
91 -252 0
-43 -91 252 0
c gate 253 -251 -252 0
-251 -253 0
-252 -253 0
251 252 253 0
c gate 254 250 253 0
250 -254 0
253 -254 0
-250 -253 254 0
c gate 255 247 254 0
247 -255 0
254 -255 0
-247 -254 255 0
c gate 256 40 88 0
40 -256 0
88 -256 0
-40 -88 256 0
c gate 257 -47 -95 0
-47 -257 0
-95 -257 0
47 95 257 0
c gate 258 -256 -257 0
-256 -258 0
-257 -258 0
256 257 258 0
c gate 259 -43 -91 0
-43 -259 0
-91 -259 0
43 91 259 0
c gate 260 47 95 0
47 -260 0
95 -260 0
-47 -95 260 0
c gate 261 -259 -260 0
-259 -261 0
-260 -261 0
259 260 261 0
c gate 262 258 261 0
258 -262 0
261 -262 0
-258 -261 262 0
c gate 263 41 89 0
41 -263 0
89 -263 0
-41 -89 263 0
c gate 264 -38 -86 0
-38 -264 0
-86 -264 0
38 86 264 0
c gate 265 -263 -264 0
-263 -265 0
-264 -265 0
263 264 265 0
c gate 266 37 85 0
37 -266 0
85 -266 0
-37 -85 266 0
c gate 267 -48 -96 0
-48 -267 0
-96 -267 0
48 96 267 0
c gate 268 -266 -267 0
-266 -268 0
-267 -268 0
266 267 268 0
c gate 269 265 268 0
265 -269 0
268 -269 0
-265 -268 269 0
c gate 270 262 269 0
262 -270 0
269 -270 0
-262 -269 270 0
c gate 271 255 270 0
255 -271 0
270 -271 0
-255 -270 271 0
c gate 272 39 87 0
39 -272 0
87 -272 0
-39 -87 272 0
c gate 273 34 82 0
34 -273 0
82 -273 0
-34 -82 273 0
c gate 274 -272 -273 0
-272 -274 0
-273 -274 0
272 273 274 0
c gate 275 45 93 0
45 -275 0
93 -275 0
-45 -93 275 0
c gate 276 -34 -82 0
-34 -276 0
-82 -276 0
34 82 276 0
c gate 277 -275 -276 0
-275 -277 0
-276 -277 0
275 276 277 0
c gate 278 274 277 0
274 -278 0
277 -278 0
-274 -277 278 0
c gate 279 42 90 0
42 -279 0
90 -279 0
-42 -90 279 0
c gate 280 -36 -84 0
-36 -280 0
-84 -280 0
36 84 280 0
c gate 281 -279 -280 0
-279 -281 0
-280 -281 0
279 280 281 0
c gate 282 33 81 0
33 -282 0
81 -282 0
-33 -81 282 0
c gate 283 -33 -81 0
-33 -283 0
-81 -283 0
33 81 283 0
c gate 284 -282 -283 0
-282 -284 0
-283 -284 0
282 283 284 0
c gate 285 281 284 0
281 -285 0
284 -285 0
-281 -284 285 0
c gate 286 278 285 0
278 -286 0
285 -286 0
-278 -285 286 0
c gate 287 36 84 0
36 -287 0
84 -287 0
-36 -84 287 0
c gate 288 44 92 0
44 -288 0
92 -288 0
-44 -92 288 0
c gate 289 -287 -288 0
-287 -289 0
-288 -289 0
287 288 289 0
c gate 290 48 96 0
48 -290 0
96 -290 0
-48 -96 290 0
c gate 291 -46 -94 0
-46 -291 0
-94 -291 0
46 94 291 0
c gate 292 -290 -291 0
-290 -292 0
-291 -292 0
290 291 292 0
c gate 293 289 292 0
289 -293 0
292 -293 0
-289 -292 293 0
c gate 294 35 83 0
35 -294 0
83 -294 0
-35 -83 294 0
c gate 295 -42 -90 0
-42 -295 0
-90 -295 0
42 90 295 0
c gate 296 -294 -295 0
-294 -296 0
-295 -296 0
294 295 296 0
c gate 297 -37 -85 0
-37 -297 0
-85 -297 0
37 85 297 0
c gate 298 -44 -92 0
-44 -298 0
-92 -298 0
44 92 298 0
c gate 299 -297 -298 0
-297 -299 0
-298 -299 0
297 298 299 0
c gate 300 296 299 0
296 -300 0
299 -300 0
-296 -299 300 0
c gate 301 293 300 0
293 -301 0
300 -301 0
-293 -300 301 0
c gate 302 286 301 0
286 -302 0
301 -302 0
-286 -301 302 0
c gate 303 271 302 0
271 -303 0
302 -303 0
-271 -302 303 0
c gate 304 -240 303 0
-240 -304 0
303 -304 0
240 -303 304 0
c gate 305 -115 152 0
-115 -305 0
152 -305 0
115 -152 305 0
c gate 306 -112 -305 0
-112 -306 0
-305 -306 0
112 305 306 0
c gate 307 157 -306 0
157 -307 0
-306 -307 0
-157 306 307 0
c gate 308 -102 -107 0
-102 -308 0
-107 -308 0
102 107 308 0
c gate 309 -307 308 0
-307 -309 0
308 -309 0
307 -308 309 0
c gate 310 163 309 0
163 -310 0
309 -310 0
-163 -309 310 0
c gate 311 -304 -310 0
-304 -311 0
-310 -311 0
304 310 311 0
c gate 312 -234 311 0
-234 -312 0
311 -312 0
234 -311 312 0
c PO
-312 0
